sing20160816.00
TTAA 66001 48698
99007 27648 02501 00086 27450 20005 92773 22012 18012
85507 18830 25015 70151 10657 26512 50588 04945 05508
40760 15558 09016 30970 30956 08525 25097 40758 07546
20244 53927 07056 15424 65937 07570 10659 76161 08544
88108 81350 07574
77125 07586 41717=
TTCC 66007 48698
70866 77562 07509 50070 /////
88999
77999=
TTDD 6600/ 48698
11949 71966 22769 77162 33665 78562 44598 70171 55584
64376
21212 11966 09025 22923 12524 33899 13022 44830 09010
55786 32504 66677 11010 77659 09523 88597 08552 99584
09044=
